# Objective value = 1.9685198138377486e+03
x[0] 0
x[1] 1
x[2] 1
x[3] 1
x[4] 1
x[5] 1
x[6] 0
x[7] 1
x[8] 1
x[9] 0
x[10] 0
x[11] 0
x[12] 0
x[13] 1
x[14] 1
x[15] 1
x[16] 1
x[17] 1
x[18] 0
x[19] 1
x[20] 1
x[21] 0
x[22] 1
x[23] 0
x[24] 0
x[25] 0
x[26] 0
x[27] 1
x[28] 1
x[29] 1
x[30] 0
x[31] 0
x[32] 1
x[33] 0
x[34] 1
x[35] 1
x[36] 0
x[37] 1
x[38] 0
x[39] 1
x[40] 1
x[41] 1
x[42] 0
x[43] 0
x[44] 1
x[45] 1
x[46] 1
x[47] 1
x[48] 0
x[49] 1
x[50] 1
x[51] 1
x[52] 1
x[53] 1
x[54] 0
x[55] 1
x[56] 1
x[57] 1
x[58] 1
x[59] 0
x[60] 1
x[61] 1
x[62] 0
x[63] 0
x[64] 0
x[65] 0
x[66] 1
x[67] 1
x[68] 1
x[69] 0
x[70] 1
x[71] 1
x[72] 1
x[73] 1
x[74] 1
x[75] 1
x[76] 0
x[77] 1
x[78] 1
x[79] 0
x[80] 1
x[81] 1
x[82] 0
x[83] 1
x[84] 0
x[85] 0
x[86] 1
x[87] 0
x[88] 1
x[89] 1
x[90] 1
x[91] 1
x[92] 1
x[93] 1
x[94] 1
x[95] 0
x[96] 1
x[97] 1
x[98] 1
x[99] 0
x[100] 1
x[101] 0
x[102] 1
x[103] 1
x[104] 0
x[105] 0
x[106] 0
x[107] 0
x[108] 0
x[109] 0
x[110] 1
x[111] 1
x[112] 1
x[113] 0
x[114] 0
x[115] 0
x[116] 1
x[117] 0
x[118] 0
x[119] 1
x[120] 0
x[121] 0
x[122] 1
x[123] 1
x[124] 1
x[125] 0
x[126] 0
x[127] 0
x[128] 1
x[129] 0
x[130] 1
x[131] 1
x[132] 1
x[133] 1
x[134] 1
x[135] 0
x[136] 0
x[137] 1
x[138] 1
x[139] 1
x[140] 0
x[141] 1
x[142] 0
x[143] 1
x[144] 0
x[145] 1
x[146] 0
x[147] 1
x[148] 0
x[149] 1
x[150] 1
x[151] 1
x[152] 1
x[153] 1
x[154] 1
x[155] 1
x[156] 0
x[157] 1
x[158] 1
x[159] 0
x[160] 1
x[161] 1
x[162] 1
x[163] 0
x[164] 1
x[165] 1
x[166] 1
x[167] 0
x[168] 0
x[169] 0
x[170] 0
x[171] 1
x[172] 1
x[173] 0
x[174] 0
x[175] 1
x[176] 0
x[177] 1
x[178] 1
x[179] 1
x[180] 0
x[181] 1
x[182] 1
x[183] 0
x[184] 0
x[185] 0
x[186] 1
x[187] 0
x[188] 1
x[189] 0
x[190] 1
x[191] 1
x[192] 1
x[193] 1
x[194] 0
x[195] 0
x[196] 1
x[197] 0
x[198] 0
x[199] 1
x[200] 0
x[201] 0
x[202] 1
x[203] 1
x[204] 1
x[205] 0
x[206] 0
x[207] 1
x[208] 0
x[209] 1
x[210] 1
x[211] 1
x[212] 0
x[213] 1
x[214] 0
x[215] 0
x[216] 1
x[217] 1
x[218] 0
x[219] 1
x[220] 0
x[221] 1
x[222] 1
x[223] 1
x[224] 1
x[225] 0
x[226] 1
x[227] 0
x[228] 0
x[229] 1
x[230] 1
x[231] 1
x[232] 0
x[233] 1
x[234] 1
x[235] 0
x[236] 0
x[237] 1
x[238] 1
x[239] 1
x[240] 1
x[241] 1
x[242] 1
x[243] 1
x[244] 0
x[245] 1
x[246] 1
x[247] 0
x[248] 1
x[249] 1
x[250] 1
x[251] 1
x[252] 0
x[253] 1
x[254] 0
x[255] 1
x[256] 0
x[257] 1
x[258] 0
x[259] 1
x[260] 0
x[261] 0
x[262] 0
x[263] 0
x[264] 0
x[265] 0
x[266] 0
x[267] 0
x[268] 1
x[269] 1
x[270] 1
x[271] 0
x[272] 0
x[273] 1
x[274] 1
x[275] 1
x[276] 1
x[277] 1
x[278] 1
x[279] 0
x[280] 1
x[281] 1
x[282] 1
x[283] 0
x[284] 0
x[285] 1
x[286] 0
x[287] 1
x[288] 0
x[289] 1
x[290] 1
x[291] 1
x[292] 0
x[293] 0
x[294] 1
x[295] 0
x[296] 0
x[297] 1
x[298] 1
x[299] 1
x[300] 1
x[301] 1
x[302] 0
x[303] 0
x[304] 1
x[305] 1
x[306] 0
x[307] 0
x[308] 0
x[309] 1
x[310] 0
x[311] 1
x[312] 1
x[313] 1
x[314] 0
x[315] 0
x[316] 1
x[317] 0
x[318] 0
x[319] 0
x[320] 1
x[321] 0
x[322] 1
x[323] 0
x[324] 1
x[325] 0
x[326] 0
x[327] 0
x[328] 0
x[329] 0
x[330] 0
x[331] 0
x[332] 0
x[333] 0
x[334] 0
x[335] 1
x[336] 0
x[337] 0
x[338] 1
x[339] 1
x[340] 1
x[341] 1
x[342] 1
x[343] 0
x[344] 0
x[345] 1
x[346] 1
x[347] 0
x[348] 1
x[349] 1
x[350] 1
x[351] 0
x[352] 1
x[353] 0
x[354] 1
x[355] 0
x[356] 1
x[357] 1
x[358] 1
x[359] 1
x[360] 1
x[361] 1
x[362] 1
x[363] 0
x[364] 1
x[365] 0
x[366] 1
x[367] 1
x[368] 1
x[369] 1
x[370] 0
x[371] 0
x[372] 0
x[373] 1
x[374] 1
x[375] 0
x[376] 1
x[377] 1
x[378] 1
x[379] 0
x[380] 0
x[381] 1
x[382] 0
x[383] 0
x[384] 1
x[385] 1
x[386] 1
x[387] 1
x[388] 1
x[389] 1
x[390] 1
x[391] 0
x[392] 1
x[393] 0
x[394] 1
x[395] 0
x[396] 1
x[397] 0
x[398] 1
x[399] 1
x[400] 0
x[401] 1
x[402] 0
x[403] 1
x[404] 0
x[405] 0
x[406] 1
x[407] 1
x[408] 1
x[409] 1
x[410] 1
x[411] 0
x[412] 1
x[413] 1
x[414] 1
x[415] 1
x[416] 0
x[417] 0
x[418] 1
x[419] 1
x[420] 1
x[421] 0
x[422] 0
x[423] 1
x[424] 1
x[425] 0
x[426] 1
x[427] 1
x[428] 1
x[429] 0
x[430] 0
x[431] 1
x[432] 1
x[433] 1
x[434] 0
x[435] 1
x[436] 1
x[437] 0
x[438] 1
x[439] 0
x[440] 0
x[441] 0
x[442] 0
x[443] 1
x[444] 1
x[445] 0
x[446] 1
x[447] 0
x[448] 0
x[449] 0
x[450] 0
x[451] 1
x[452] 0
x[453] 0
x[454] 1
x[455] 0
x[456] 0
x[457] 1
x[458] 1
x[459] 0
x[460] 0
x[461] 0
x[462] 0
x[463] 1
x[464] 1
x[465] 1
x[466] 1
x[467] 1
x[468] 0
x[469] 0
x[470] 1
x[471] 1
x[472] 1
x[473] 0
x[474] 1
x[475] 1
x[476] 1
x[477] 0
x[478] 1
x[479] 1
x[480] 0
x[481] 0
x[482] 1
x[483] 0
x[484] 0
x[485] 1
x[486] 1
x[487] 1
x[488] 1
x[489] 1
x[490] 1
x[491] 1
x[492] 1
x[493] 0
x[494] 0
x[495] 0
x[496] 1
x[497] 1
x[498] 0
x[499] 1
x[500] 1
x[501] 0
x[502] 0
x[503] 1
x[504] 1
x[505] 1
x[506] 1
x[507] 1
x[508] 1
x[509] 0
x[510] 0
x[511] 0
x[512] 0
x[513] 0
x[514] 0
x[515] 0
x[516] 1
x[517] 1
x[518] 1
x[519] 1
x[520] 0
x[521] 1
x[522] 0
x[523] 1
x[524] 1
x[525] 0
x[526] 1
x[527] 0
x[528] 1
x[529] 0
x[530] 1
x[531] 1
x[532] 1
x[533] 1
x[534] 1
x[535] 0
x[536] 1
x[537] 1
x[538] 1
x[539] 0
x[540] 0
x[541] 0
x[542] 1
x[543] 1
x[544] 1
x[545] 1
x[546] 1
x[547] 1
x[548] 1
x[549] 0
x[550] 0
x[551] 1
x[552] 1
x[553] 0
x[554] 1
x[555] 0
x[556] 1
x[557] 0
x[558] 0
x[559] 0
x[560] 1
x[561] 1
x[562] 1
x[563] 1
x[564] 0
x[565] 1
x[566] 0
x[567] 0
x[568] 0
x[569] 1
x[570] 1
x[571] 0
x[572] 1
x[573] 0
x[574] 1
x[575] 0
x[576] 0
x[577] 1
x[578] 0
x[579] 0
x[580] 1
x[581] 1
x[582] 0
x[583] 0
x[584] 0
x[585] 0
x[586] 0
x[587] 0
x[588] 1
x[589] 1
x[590] 0
x[591] 0
x[592] 0
x[593] 0
x[594] 1
x[595] 0
x[596] 0
x[597] 0
x[598] 0
x[599] 0
x[600] 0
x[601] 0
x[602] 0
x[603] 0
x[604] 0
x[605] 1
x[606] 1
x[607] 0
x[608] 1
x[609] 1
x[610] 1
x[611] 1
x[612] 0
x[613] 1
x[614] 0
x[615] 1
x[616] 1
x[617] 0
x[618] 1
x[619] 0
x[620] 0
x[621] 0
x[622] 0
x[623] 1
x[624] 1
x[625] 0
x[626] 0
x[627] 1
x[628] 0
x[629] 0
x[630] 1
x[631] 0
x[632] 1
x[633] 1
x[634] 1
x[635] 0
x[636] 0
x[637] 1
x[638] 0
x[639] 0
x[640] 1
x[641] 1
x[642] 1
x[643] 0
x[644] 0
x[645] 1
x[646] 0
x[647] 1
x[648] 1
x[649] 0
x[650] 1
x[651] 1
x[652] 1
x[653] 0
x[654] 0
x[655] 0
x[656] 0
x[657] 1
x[658] 0
x[659] 1
x[660] 0
x[661] 1
x[662] 0
x[663] 0
x[664] 1
x[665] 0
x[666] 1
x[667] 0
x[668] 1
x[669] 1
x[670] 1
x[671] 0
x[672] 1
x[673] 1
x[674] 0
x[675] 1
x[676] 0
x[677] 1
x[678] 0
x[679] 1
x[680] 1
x[681] 0
x[682] 1
x[683] 1
x[684] 0
x[685] 1
x[686] 1
x[687] 1
x[688] 0
x[689] 0
x[690] 0
x[691] 0
x[692] 0
x[693] 0
x[694] 1
x[695] 0
x[696] 1
x[697] 0
x[698] 0
x[699] 1
x[700] 0
x[701] 1
x[702] 1
x[703] 1
x[704] 0
x[705] 0
x[706] 0
x[707] 1
x[708] 0
x[709] 1
x[710] 1
x[711] 0
x[712] 0
x[713] 0
x[714] 1
x[715] 0
x[716] 1
x[717] 1
x[718] 0
x[719] 0
x[720] 0
x[721] 0
x[722] 0
x[723] 0
x[724] 0
x[725] 1
x[726] 0
x[727] 1
x[728] 1
x[729] 0
x[730] 1
x[731] 1
x[732] 0
x[733] 1
x[734] 0
x[735] 1
x[736] 1
x[737] 0
x[738] 0
x[739] 1
x[740] 1
x[741] 0
x[742] 1
x[743] 1
x[744] 0
x[745] 0
x[746] 1
x[747] 1
x[748] 1
x[749] 1
x[750] 1
x[751] 0
x[752] 0
x[753] 0
x[754] 1
x[755] 0
x[756] 0
x[757] 1
x[758] 1
x[759] 1
x[760] 1
x[761] 0
x[762] 1
x[763] 1
x[764] 0
x[765] 1
x[766] 1
x[767] 1
x[768] 0
x[769] 1
x[770] 0
x[771] 1
x[772] 0
x[773] 0
x[774] 1
x[775] 0
x[776] 1
x[777] 1
x[778] 0
x[779] 1
x[780] 0
x[781] 1
x[782] 0
x[783] 0
x[784] 1
x[785] 1
x[786] 1
x[787] 1
x[788] 1
x[789] 1
x[790] 0
x[791] 0
x[792] 1
x[793] 1
x[794] 1
x[795] 0
x[796] 0
x[797] 0
x[798] 0
x[799] 1
x[800] 0
x[801] 0
x[802] 1
x[803] 1
x[804] 1
x[805] 1
x[806] 0
x[807] 0
x[808] 1
x[809] 0
x[810] 1
x[811] 1
x[812] 1
x[813] 1
x[814] 0
x[815] 1
x[816] 1
x[817] 1
x[818] 0
x[819] 0
x[820] 1
x[821] 1
x[822] 1
x[823] 1
x[824] 0
x[825] 1
x[826] 1
x[827] 0
x[828] 1
x[829] 0
x[830] 1
x[831] 1
x[832] 0
x[833] 1
x[834] 0
x[835] 0
x[836] 0
x[837] 1
x[838] 0
x[839] 1
x[840] 0
x[841] 0
x[842] 1
x[843] 1
x[844] 0
x[845] 1
x[846] 0
x[847] 1
x[848] 0
x[849] 0
x[850] 0
x[851] 1
x[852] 1
x[853] 1
x[854] 0
x[855] 0
x[856] 1
x[857] 1
x[858] 1
x[859] 1
x[860] 1
x[861] 1
x[862] 0
x[863] 0
x[864] 0
x[865] 1
x[866] 1
x[867] 0
x[868] 0
x[869] 0
x[870] 1
x[871] 1
x[872] 1
x[873] 1
x[874] 0
x[875] 1
x[876] 1
x[877] 0
x[878] 0
x[879] 0
x[880] 0
x[881] 1
x[882] 0
x[883] 0
x[884] 1
x[885] 1
x[886] 1
x[887] 0
x[888] 0
x[889] 0
x[890] 0
x[891] 1
x[892] 0
x[893] 0
x[894] 1
x[895] 1
x[896] 0
x[897] 1
x[898] 1
x[899] 0
x[900] 1
x[901] 1
x[902] 0
x[903] 1
x[904] 0
x[905] 1
x[906] 1
x[907] 1
x[908] 0
x[909] 1
x[910] 0
x[911] 0
x[912] 1
x[913] 1
x[914] 1
x[915] 1
x[916] 0
x[917] 1
x[918] 1
x[919] 1
x[920] 1
x[921] 1
x[922] 1
x[923] 1
x[924] 1
x[925] 0
x[926] 1
x[927] 1
x[928] 0
x[929] 1
x[930] 1
x[931] 1
x[932] 0
x[933] 0
x[934] 0
x[935] 1
x[936] 0
x[937] 0
x[938] 1
x[939] 1
x[940] 1
x[941] 1
x[942] 1
x[943] 1
x[944] 0
x[945] 0
x[946] 0
x[947] 0
x[948] 1
x[949] 1
x[950] 1
x[951] 1
x[952] 1
x[953] 1
x[954] 0
x[955] 0
x[956] 1
x[957] 1
x[958] 1
x[959] 1
x[960] 1
x[961] 0
x[962] 0
x[963] 1
x[964] 1
x[965] 1
x[966] 1
x[967] 1
x[968] 0
x[969] 0
x[970] 1
x[971] 0
x[972] 1
x[973] 0
x[974] 0
x[975] 0
x[976] 1
x[977] 1
x[978] 1
x[979] 1
x[980] 1
x[981] 1
x[982] 1
x[983] 1
x[984] 1
x[985] 0
x[986] 0
x[987] 0
x[988] 1
x[989] 1
x[990] 1
x[991] 0
x[992] 1
x[993] 1
x[994] 0
x[995] 0
x[996] 1
x[997] 1
x[998] 1
x[999] 1
